nNurses = 194;
nHours = 34;
minHours = 8;
maxHours = 12;
maxConsec = 10;
maxPresence = 28;
demand = [13, 16, 21, 21, 20, 18, 17, 17, 14, 14, 17, 13, 8, 5, 6, 7, 7, 9, 13, 13, 16, 16, 18, 17, 19, 19, 24, 19, 17, 13, 16, 20, 19, 21];
